maximize
OBJ:100x0 + 100x1 + 100x2 + 100x3 + 100x4 + 100x5 + 100x6 + 100x7 + 100x8 + 100x9 + 100x10 + 100x11 + 100x12 + 100x13 + 100x14 + 100x15 + 100x16 + 100x17 + 100x18 + 100x19 + 100x20 + 100x21 + 100x22 + 100x23 + 100x24 + 100x25 + 100x26 + 100x27 + 100x28 + 100x29 + 100x30 + 100x31 + 100x32 + 100x33 + 100x34 + 100x35 + 100x36 + 100x37 + 100x38 + 100x39 + 100x40 + 100x41 + 100x42 + 100x43 + 100x44 + 100x45 + 100x46 + 100x47 + 100x48 + 100x49 + 100x50 + 100x51 + 100x52 + 100x53 + 100x54 + 100x55 + 100x56 + 100x57 + 100x58 + 100x59 + 100x60 + 100x61 + 100x62 + 100x63 + 100x64 - y18_26 - y15_39 - y26_39 - y7_35 - y8_9 - y9_63 - y0_5 - y40_41 - y48_54 - y6_48 - y21_46 - y6_57 - y11_23 - y40_59 - y10_27 - y41_42 - y41_51 - y25_34 - y10_45 - y2_41 - y3_6 - y25_43 - y44_56 - y2_50 - y3_15 - y14_15 - y14_24 - y14_42 - y14_51 - y36_48 - y15_25 - y17_53 - y9_49 - y28_62 - y29_36 - y29_45 - y48_58 - y21_41 - y21_50 - y25_29 - y33_42 - y22_23 - y3_19 - y43_64 - y3_37 - y17_39 - y28_39 - y17_48 - y28_48 - y17_57 - y5_64 - y29_31 - y6_56 - y40_58 - y39_62 - y33_37 - y10_44 - y12_63 - y2_40 - y2_49 - y43_50 - y51_63 - y13_46 - y24_46 - y32_59 - y35_46 - y1_62 - y24_64 - y16_60 - y36_38 - y28_34 - y7_11 - y5_41 - y17_52 - y28_61 - y6_24 - y50_58 - y21_31 - y10_12 - y2_8 - y31_53 - y54_55 - y10_30 - y25_28 - y10_39 - y12_58 - y43_45 - y13_41 - y43_54 - y1_48 - y16_46 - y24_59 - y17_20 - y16_64 - y17_29 - y5_36 - y9_52 - y5_63 - y6_37 - y39_43 - y20_39 - y39_52 - y2_12 - y31_48 - y10_25 - y39_61 - y2_21 - y20_57 - y4_49 - y23_62 - y24_27 - y3_4 - y1_34 - y43_49 - y24_45 - y24_54 - y16_50 - y13_63 - y24_63 - y9_11 - y16_59 - y5_22 - y17_24 - y35_63 - y5_58 - y58_61 - y50_57 - y8_51 - y42_53 - y8_60 - y0_56 - y20_34 - y31_34 - y2_7 - y20_43 - y39_56 - y2_16 - y20_52 - y4_44 - y4_53 - y16_18 - y43_44 - y13_40 - y43_53 - y16_54 - y46_55 - y5_26 - y17_28 - y49_60 - y5_35 - y28_37 - y6_18 - y27_50 - y50_52 - y12_25 - y23_25 - y20_38 - y31_38 - y39_51 - y31_47 - y31_56 - y4_39 - y1_15 - y12_61 - y16_22 - y1_33 - y24_35 - y37_63 - y16_49 - y5_12 - y46_50 - y17_23 - y46_59 - y49_55 - y15_62 - y38_64 - y5_39 - y18_58 - y49_64 - y27_36 - y6_13 - y19_32 - y30_41 - y42_43 - y27_54 - y0_37 - y19_50 - y11_55 - y20_33 - y0_64 - y4_25 - y23_47 - y12_56 - y13_21 - y53_57 - y1_28 - y16_26 - y22_60 - y45_62 - y16_35 - y1_46 - y38_41 - y57_63 - y7_44 - y26_57 - y38_59 - y49_59 - y18_53 - y7_62 - y8_27 - y18_62 - y11_32 - y19_45 - y11_41 - y12_15 - y0_59 - y4_29 - y23_42 - y1_5 - y1_14 - y4_47 - y45_48 - y53_61 - y37_44 - y34_57 - y45_57 - y15_34 - y15_43 - y26_52 - y49_54 - y7_48 - y7_57 - y27_35 - y0_18 - y11_18 - y11_27 - y19_40 - y11_45 - y20_23 - y4_6 - y33_51 - y23_28 - y33_60 - y44_60 - y23_37 - y1_9 - y34_43 - y34_52 - y22_59 - y3_55 - y26_29 - y5_6 - y18_25 - y26_38 - y38_40 - y26_47 - y18_52 - y0_13 - y11_13 - y18_61 - y27_39 - y29_58 - y19_35 - y11_31 - y30_44 - y21_63 - y41_50 - y10_53 - y33_55 - y4_28 - y22_36 - y22_45 - y45_47 - y37_43 - y22_54 - y34_56 - y14_50 - y37_61 - y15_51 - y19_21 - y0_17 - y11_17 - y8_30 - y29_53 - y63_64 - y25_37 - y4_14 - y25_55 - y2_62 - y3_27 - y25_64 - y3_45 - y22_58 - y36_60 - y26_37 - y7_33 - y26_46 - y29_39 - y48_52 - y0_12 - y11_12 - y40_48 - y48_61 - y6_55 - y11_21 - y29_57 - y21_53 - y33_36 - y52_58 - y33_54 - y44_54 - y22_26 - y2_57 - y22_35 - y3_31 - y14_31 - y22_53 - y3_49 - y36_46 - y15_23 - y47_55 - y26_32 - y17_51 - y7_28 - y36_64 - y17_60 - y7_37 - y9_56 - y29_34 - y0_7 - y6_41 - y29_43 - y0_16 - y41_44 - y2_25 - y2_34 - y10_47 - y33_49 - y3_8 - y2_52 - y25_54 - y2_61 - y3_26 - y14_44 - y36_41 - y15_18 - y7_14 - y36_50 - y18_23 - y9_51 - y48_51 - y21_34 - y21_43 - y21_52 - y6_63 - y25_31 - y10_51 - y2_47 - y3_12 - y32_57 - y13_53 - y24_53 - y16_58 - y36_45 - y55_58 - y17_41 - y47_54 - y6_31 - y6_40 - y29_42 - y21_47 - y10_28 - y2_24 - y10_37 - y25_35 - y3_7 - y51_56 - y43_52 - y24_48 - y1_55 - y24_57 - y16_53 - y16_62 - y17_27 - y5_34 - y17_36 - y5_43 - y47_58 - y17_54 - y5_61 - y58_64 - y9_59 - y21_24 - y6_35 - y21_42 - y10_14 - y31_46 - y10_23 - y2_19 - y31_64 - y23_60 - y13_34 - y51_60 - y13_43 - y24_43 - y35_43 - y43_56 - y13_52 - y1_59 - y24_61 - y5_29 - y17_31 - y17_40 - y28_40 - y21_28 - y27_62 - y42_60 - y0_63 - y11_63 - y39_45 - y2_5 - y31_41 - y2_14 - y20_50 - y23_46 - y20_59 - y31_59 - y13_20 - y4_51 - y13_29 - y1_36 - y32_51 - y16_34 - y43_51 - y24_47 - y16_43 - y24_56 - y35_56 - y1_63 - y16_61 - y57_62 - y38_58 - y17_35 - y5_42 - y28_44 - y58_63 - y19_62 - y42_64 - y11_58 - y31_36 - y39_49 - y23_41 - y12_50 - y31_63 - y12_59 - y23_59 - y53_60 - y32_37 - y16_20 - y32_46 - y43_46 - y5_10 - y46_48 - y5_19 - y17_30 - y9_26 - y26_60 - y49_62 - y9_35 - y27_34 - y6_11 - y30_39 - y50_54 - y42_50 - y27_61 - y61_63 - y19_57 - y0_53 - y20_31 - y39_44 - y39_53 - y1_26 - y45_60 - y35_37 - y16_33 - y1_44 - y16_42 - y5_14 - y9_12 - y15_46 - y46_61 - y5_32 - y18_51 - y15_64 - y26_64 - y27_38 - y8_34 - y19_34 - y30_34 - y19_43 - y0_39 - y19_52 - y12_22 - y31_44 - y23_40 - y1_12 - y4_45 - y45_46 - y1_21 - y4_54 - y1_39 - y3_58 - y14_58 - y5_18 - y46_56 - y9_16 - y38_52 - y18_46 - y26_59 - y18_55 - y19_20 - y18_64 - y0_34 - y8_47 - y0_43 - y8_56 - y20_21 - y0_52 - y0_61 - y11_61 - y4_22 - y4_40 - y13_18 - y34_50 - y45_50 - y1_25 - y56_59 - y37_55 - y15_27 - y26_36 - y46_51 - y7_32 - y18_32 - y15_45 - y38_47 - y15_54 - y38_56 - y18_50 - y8_24 - y19_24 - y27_37 - y8_42 - y19_42 - y41_57 - y52_57 - y33_53 - y25_49 - y10_60 - y33_62 - y22_43 - y34_45 - y53_58 - y3_39 - y3_48 - y45_63 - y56_63 - y3_57 - y18_45 - y8_19 - y11_24 - y40_60 - y30_37 - y21_56 - y41_52 - y4_12 - y41_61 - y4_21 - y44_57 - y3_34 - y14_34 - y15_17 - y14_61 - y15_35 - y26_35 - y7_31 - y7_40 - y18_40 - y0_10 - y40_46 - y6_53 - y29_55 - y21_51 - y6_62 - y52_56 - y4_16 - y10_50 - y33_52 - y44_52 - y10_59 - y44_61 - y3_20 - y3_29 - y14_29 - y22_51 - y7_8
 Subject to
C1: x0+x2 <=1 
C2: x0+x4 <=1 
C3: x0+x5-y0_5 <=1 
C4: x0+x6 <=1 
C5: x0+x7-y0_7 <=1 
C6: x0+x8 <=1 
C7: x0+x9 <=1 
C8: x0+x10-y0_10 <=1 
C9: x0+x12-y0_12 <=1 
C10: x0+x13-y0_13 <=1 
C11: x0+x14 <=1 
C12: x0+x16-y0_16 <=1 
C13: x0+x17-y0_17 <=1 
C14: x0+x18-y0_18 <=1 
C15: x0+x21 <=1 
C16: x0+x22 <=1 
C17: x0+x25 <=1 
C18: x0+x26 <=1 
C19: x0+x27 <=1 
C20: x0+x28 <=1 
C21: x0+x30 <=1 
C22: x0+x31 <=1 
C23: x0+x32 <=1 
C24: x0+x34-y0_34 <=1 
C25: x0+x35 <=1 
C26: x0+x36 <=1 
C27: x0+x37-y0_37 <=1 
C28: x0+x39-y0_39 <=1 
C29: x0+x40 <=1 
C30: x0+x41 <=1 
C31: x0+x43-y0_43 <=1 
C32: x0+x44 <=1 
C33: x0+x45 <=1 
C34: x0+x49 <=1 
C35: x0+x50 <=1 
C36: x0+x52-y0_52 <=1 
C37: x0+x53-y0_53 <=1 
C38: x0+x56-y0_56 <=1 
C39: x0+x57 <=1 
C40: x0+x59-y0_59 <=1 
C41: x0+x61-y0_61 <=1 
C42: x0+x63-y0_63 <=1 
C43: x0+x64-y0_64 <=1 
C44: x1+x2 <=1 
C45: x1+x4 <=1 
C46: x1+x5-y1_5 <=1 
C47: x1+x9-y1_9 <=1 
C48: x1+x11 <=1 
C49: x1+x12-y1_12 <=1 
C50: x1+x14-y1_14 <=1 
C51: x1+x15-y1_15 <=1 
C52: x1+x19 <=1 
C53: x1+x21-y1_21 <=1 
C54: x1+x25-y1_25 <=1 
C55: x1+x26-y1_26 <=1 
C56: x1+x28-y1_28 <=1 
C57: x1+x33-y1_33 <=1 
C58: x1+x34-y1_34 <=1 
C59: x1+x36-y1_36 <=1 
C60: x1+x39-y1_39 <=1 
C61: x1+x41 <=1 
C62: x1+x42 <=1 
C63: x1+x44-y1_44 <=1 
C64: x1+x46-y1_46 <=1 
C65: x1+x48-y1_48 <=1 
C66: x1+x50 <=1 
C67: x1+x51 <=1 
C68: x1+x54 <=1 
C69: x1+x55-y1_55 <=1 
C70: x1+x56 <=1 
C71: x1+x59-y1_59 <=1 
C72: x1+x60 <=1 
C73: x1+x62-y1_62 <=1 
C74: x1+x63-y1_63 <=1 
C75: x2+x3 <=1 
C76: x2+x5-y2_5 <=1 
C77: x2+x7-y2_7 <=1 
C78: x2+x8-y2_8 <=1 
C79: x2+x11 <=1 
C80: x2+x12-y2_12 <=1 
C81: x2+x13 <=1 
C82: x2+x14-y2_14 <=1 
C83: x2+x15 <=1 
C84: x2+x16-y2_16 <=1 
C85: x2+x17 <=1 
C86: x2+x18 <=1 
C87: x2+x19-y2_19 <=1 
C88: x2+x21-y2_21 <=1 
C89: x2+x22 <=1 
C90: x2+x24-y2_24 <=1 
C91: x2+x25-y2_25 <=1 
C92: x2+x26 <=1 
C93: x2+x29 <=1 
C94: x2+x32 <=1 
C95: x2+x33 <=1 
C96: x2+x34-y2_34 <=1 
C97: x2+x35 <=1 
C98: x2+x36 <=1 
C99: x2+x37 <=1 
C100: x2+x38 <=1 
C101: x2+x39 <=1 
C102: x2+x40-y2_40 <=1 
C103: x2+x41-y2_41 <=1 
C104: x2+x43 <=1 
C105: x2+x46 <=1 
C106: x2+x47-y2_47 <=1 
C107: x2+x49-y2_49 <=1 
C108: x2+x50-y2_50 <=1 
C109: x2+x51 <=1 
C110: x2+x52-y2_52 <=1 
C111: x2+x53 <=1 
C112: x2+x57-y2_57 <=1 
C113: x2+x61-y2_61 <=1 
C114: x2+x62-y2_62 <=1 
C115: x2+x63 <=1 
C116: x2+x64 <=1 
C117: x3+x4-y3_4 <=1 
C118: x3+x5 <=1 
C119: x3+x6-y3_6 <=1 
C120: x3+x7-y3_7 <=1 
C121: x3+x8-y3_8 <=1 
C122: x3+x9 <=1 
C123: x3+x10 <=1 
C124: x3+x11 <=1 
C125: x3+x12-y3_12 <=1 
C126: x3+x14 <=1 
C127: x3+x15-y3_15 <=1 
C128: x3+x16 <=1 
C129: x3+x18 <=1 
C130: x3+x19-y3_19 <=1 
C131: x3+x20-y3_20 <=1 
C132: x3+x21 <=1 
C133: x3+x23 <=1 
C134: x3+x24 <=1 
C135: x3+x26-y3_26 <=1 
C136: x3+x27-y3_27 <=1 
C137: x3+x28 <=1 
C138: x3+x29-y3_29 <=1 
C139: x3+x30 <=1 
C140: x3+x31-y3_31 <=1 
C141: x3+x33 <=1 
C142: x3+x34-y3_34 <=1 
C143: x3+x36 <=1 
C144: x3+x37-y3_37 <=1 
C145: x3+x39-y3_39 <=1 
C146: x3+x43 <=1 
C147: x3+x45-y3_45 <=1 
C148: x3+x47 <=1 
C149: x3+x48-y3_48 <=1 
C150: x3+x49-y3_49 <=1 
C151: x3+x50 <=1 
C152: x3+x53 <=1 
C153: x3+x55-y3_55 <=1 
C154: x3+x57-y3_57 <=1 
C155: x3+x58-y3_58 <=1 
C156: x3+x61 <=1 
C157: x3+x63 <=1 
C158: x4+x5 <=1 
C159: x4+x6-y4_6 <=1 
C160: x4+x7 <=1 
C161: x4+x8 <=1 
C162: x4+x12-y4_12 <=1 
C163: x4+x14-y4_14 <=1 
C164: x4+x15 <=1 
C165: x4+x16-y4_16 <=1 
C166: x4+x21-y4_21 <=1 
C167: x4+x22-y4_22 <=1 
C168: x4+x25-y4_25 <=1 
C169: x4+x27 <=1 
C170: x4+x28-y4_28 <=1 
C171: x4+x29-y4_29 <=1 
C172: x4+x32 <=1 
C173: x4+x35 <=1 
C174: x4+x39-y4_39 <=1 
C175: x4+x40-y4_40 <=1 
C176: x4+x44-y4_44 <=1 
C177: x4+x45-y4_45 <=1 
C178: x4+x47-y4_47 <=1 
C179: x4+x49-y4_49 <=1 
C180: x4+x51-y4_51 <=1 
C181: x4+x53-y4_53 <=1 
C182: x4+x54-y4_54 <=1 
C183: x4+x55 <=1 
C184: x4+x58 <=1 
C185: x4+x59 <=1 
C186: x4+x62 <=1 
C187: x5+x6-y5_6 <=1 
C188: x5+x10-y5_10 <=1 
C189: x5+x11 <=1 
C190: x5+x12-y5_12 <=1 
C191: x5+x13 <=1 
C192: x5+x14-y5_14 <=1 
C193: x5+x18-y5_18 <=1 
C194: x5+x19-y5_19 <=1 
C195: x5+x20 <=1 
C196: x5+x22-y5_22 <=1 
C197: x5+x26-y5_26 <=1 
C198: x5+x29-y5_29 <=1 
C199: x5+x31 <=1 
C200: x5+x32-y5_32 <=1 
C201: x5+x33 <=1 
C202: x5+x34-y5_34 <=1 
C203: x5+x35-y5_35 <=1 
C204: x5+x36-y5_36 <=1 
C205: x5+x38 <=1 
C206: x5+x39-y5_39 <=1 
C207: x5+x40 <=1 
C208: x5+x41-y5_41 <=1 
C209: x5+x42-y5_42 <=1 
C210: x5+x43-y5_43 <=1 
C211: x5+x45 <=1 
C212: x5+x46 <=1 
C213: x5+x49 <=1 
C214: x5+x51 <=1 
C215: x5+x55 <=1 
C216: x5+x58-y5_58 <=1 
C217: x5+x59 <=1 
C218: x5+x61-y5_61 <=1 
C219: x5+x62 <=1 
C220: x5+x63-y5_63 <=1 
C221: x5+x64-y5_64 <=1 
C222: x6+x8 <=1 
C223: x6+x11-y6_11 <=1 
C224: x6+x13-y6_13 <=1 
C225: x6+x14 <=1 
C226: x6+x15 <=1 
C227: x6+x18-y6_18 <=1 
C228: x6+x19 <=1 
C229: x6+x22 <=1 
C230: x6+x24-y6_24 <=1 
C231: x6+x26 <=1 
C232: x6+x27 <=1 
C233: x6+x28 <=1 
C234: x6+x30 <=1 
C235: x6+x31-y6_31 <=1 
C236: x6+x32 <=1 
C237: x6+x35-y6_35 <=1 
C238: x6+x37-y6_37 <=1 
C239: x6+x38 <=1 
C240: x6+x39 <=1 
C241: x6+x40-y6_40 <=1 
C242: x6+x41-y6_41 <=1 
C243: x6+x42 <=1 
C244: x6+x43 <=1 
C245: x6+x44 <=1 
C246: x6+x47 <=1 
C247: x6+x48-y6_48 <=1 
C248: x6+x50 <=1 
C249: x6+x52 <=1 
C250: x6+x53-y6_53 <=1 
C251: x6+x54 <=1 
C252: x6+x55-y6_55 <=1 
C253: x6+x56-y6_56 <=1 
C254: x6+x57-y6_57 <=1 
C255: x6+x60 <=1 
C256: x6+x61 <=1 
C257: x6+x62-y6_62 <=1 
C258: x6+x63-y6_63 <=1 
C259: x6+x64 <=1 
C260: x7+x8-y7_8 <=1 
C261: x7+x11-y7_11 <=1 
C262: x7+x14-y7_14 <=1 
C263: x7+x18 <=1 
C264: x7+x20 <=1 
C265: x7+x23 <=1 
C266: x7+x25 <=1 
C267: x7+x26 <=1 
C268: x7+x27 <=1 
C269: x7+x28-y7_28 <=1 
C270: x7+x31-y7_31 <=1 
C271: x7+x32-y7_32 <=1 
C272: x7+x33-y7_33 <=1 
C273: x7+x34 <=1 
C274: x7+x35-y7_35 <=1 
C275: x7+x37-y7_37 <=1 
C276: x7+x38 <=1 
C277: x7+x39 <=1 
C278: x7+x40-y7_40 <=1 
C279: x7+x41 <=1 
C280: x7+x44-y7_44 <=1 
C281: x7+x45 <=1 
C282: x7+x46 <=1 
C283: x7+x48-y7_48 <=1 
C284: x7+x49 <=1 
C285: x7+x50 <=1 
C286: x7+x52 <=1 
C287: x7+x53 <=1 
C288: x7+x56 <=1 
C289: x7+x57-y7_57 <=1 
C290: x7+x60 <=1 
C291: x7+x62-y7_62 <=1 
C292: x7+x63 <=1 
C293: x7+x64 <=1 
C294: x8+x9-y8_9 <=1 
C295: x8+x13 <=1 
C296: x8+x14 <=1 
C297: x8+x17 <=1 
C298: x8+x19-y8_19 <=1 
C299: x8+x20 <=1 
C300: x8+x23 <=1 
C301: x8+x24-y8_24 <=1 
C302: x8+x25 <=1 
C303: x8+x27-y8_27 <=1 
C304: x8+x30-y8_30 <=1 
C305: x8+x31 <=1 
C306: x8+x32 <=1 
C307: x8+x34-y8_34 <=1 
C308: x8+x38 <=1 
C309: x8+x40 <=1 
C310: x8+x42-y8_42 <=1 
C311: x8+x45 <=1 
C312: x8+x46 <=1 
C313: x8+x47-y8_47 <=1 
C314: x8+x50 <=1 
C315: x8+x51-y8_51 <=1 
C316: x8+x56-y8_56 <=1 
C317: x8+x57 <=1 
C318: x8+x59 <=1 
C319: x8+x60-y8_60 <=1 
C320: x9+x11-y9_11 <=1 
C321: x9+x12-y9_12 <=1 
C322: x9+x14 <=1 
C323: x9+x16-y9_16 <=1 
C324: x9+x17 <=1 
C325: x9+x21 <=1 
C326: x9+x24 <=1 
C327: x9+x26-y9_26 <=1 
C328: x9+x28 <=1 
C329: x9+x30 <=1 
C330: x9+x31 <=1 
C331: x9+x32 <=1 
C332: x9+x34 <=1 
C333: x9+x35-y9_35 <=1 
C334: x9+x36 <=1 
C335: x9+x37 <=1 
C336: x9+x41 <=1 
C337: x9+x43 <=1 
C338: x9+x45 <=1 
C339: x9+x48 <=1 
C340: x9+x49-y9_49 <=1 
C341: x9+x51-y9_51 <=1 
C342: x9+x52-y9_52 <=1 
C343: x9+x55 <=1 
C344: x9+x56-y9_56 <=1 
C345: x9+x57 <=1 
C346: x9+x59-y9_59 <=1 
C347: x9+x60 <=1 
C348: x9+x62 <=1 
C349: x9+x63-y9_63 <=1 
C350: x10+x11 <=1 
C351: x10+x12-y10_12 <=1 
C352: x10+x13 <=1 
C353: x10+x14-y10_14 <=1 
C354: x10+x15 <=1 
C355: x10+x16 <=1 
C356: x10+x18 <=1 
C357: x10+x21 <=1 
C358: x10+x23-y10_23 <=1 
C359: x10+x25-y10_25 <=1 
C360: x10+x26 <=1 
C361: x10+x27-y10_27 <=1 
C362: x10+x28-y10_28 <=1 
C363: x10+x29 <=1 
C364: x10+x30-y10_30 <=1 
C365: x10+x31 <=1 
C366: x10+x35 <=1 
C367: x10+x36 <=1 
C368: x10+x37-y10_37 <=1 
C369: x10+x38 <=1 
C370: x10+x39-y10_39 <=1 
C371: x10+x40 <=1 
C372: x10+x41 <=1 
C373: x10+x42 <=1 
C374: x10+x43 <=1 
C375: x10+x44-y10_44 <=1 
C376: x10+x45-y10_45 <=1 
C377: x10+x47-y10_47 <=1 
C378: x10+x50-y10_50 <=1 
C379: x10+x51-y10_51 <=1 
C380: x10+x53-y10_53 <=1 
C381: x10+x57 <=1 
C382: x10+x58 <=1 
C383: x10+x59-y10_59 <=1 
C384: x10+x60-y10_60 <=1 
C385: x10+x62 <=1 
C386: x10+x64 <=1 
C387: x11+x12-y11_12 <=1 
C388: x11+x13-y11_13 <=1 
C389: x11+x16 <=1 
C390: x11+x17-y11_17 <=1 
C391: x11+x18-y11_18 <=1 
C392: x11+x19 <=1 
C393: x11+x20 <=1 
C394: x11+x21-y11_21 <=1 
C395: x11+x23-y11_23 <=1 
C396: x11+x24-y11_24 <=1 
C397: x11+x27-y11_27 <=1 
C398: x11+x28 <=1 
C399: x11+x29 <=1 
C400: x11+x31-y11_31 <=1 
C401: x11+x32-y11_32 <=1 
C402: x11+x33 <=1 
C403: x11+x35 <=1 
C404: x11+x37 <=1 
C405: x11+x41-y11_41 <=1 
C406: x11+x45-y11_45 <=1 
C407: x11+x49 <=1 
C408: x11+x50 <=1 
C409: x11+x51 <=1 
C410: x11+x53 <=1 
C411: x11+x54 <=1 
C412: x11+x55-y11_55 <=1 
C413: x11+x56 <=1 
C414: x11+x57 <=1 
C415: x11+x58-y11_58 <=1 
C416: x11+x61-y11_61 <=1 
C417: x11+x63-y11_63 <=1 
C418: x12+x15-y12_15 <=1 
C419: x12+x18 <=1 
C420: x12+x22-y12_22 <=1 
C421: x12+x24 <=1 
C422: x12+x25-y12_25 <=1 
C423: x12+x27 <=1 
C424: x12+x28 <=1 
C425: x12+x30 <=1 
C426: x12+x31 <=1 
C427: x12+x35 <=1 
C428: x12+x36 <=1 
C429: x12+x43 <=1 
C430: x12+x44 <=1 
C431: x12+x45 <=1 
C432: x12+x46 <=1 
C433: x12+x50-y12_50 <=1 
C434: x12+x55 <=1 
C435: x12+x56-y12_56 <=1 
C436: x12+x58-y12_58 <=1 
C437: x12+x59-y12_59 <=1 
C438: x12+x61-y12_61 <=1 
C439: x12+x62 <=1 
C440: x12+x63-y12_63 <=1 
C441: x12+x64 <=1 
C442: x13+x17 <=1 
C443: x13+x18-y13_18 <=1 
C444: x13+x19 <=1 
C445: x13+x20-y13_20 <=1 
C446: x13+x21-y13_21 <=1 
C447: x13+x24 <=1 
C448: x13+x25 <=1 
C449: x13+x29-y13_29 <=1 
C450: x13+x32 <=1 
C451: x13+x34-y13_34 <=1 
C452: x13+x35 <=1 
C453: x13+x36 <=1 
C454: x13+x38 <=1 
C455: x13+x40-y13_40 <=1 
C456: x13+x41-y13_41 <=1 
C457: x13+x42 <=1 
C458: x13+x43-y13_43 <=1 
C459: x13+x45 <=1 
C460: x13+x46-y13_46 <=1 
C461: x13+x47 <=1 
C462: x13+x50 <=1 
C463: x13+x51 <=1 
C464: x13+x52-y13_52 <=1 
C465: x13+x53-y13_53 <=1 
C466: x13+x54 <=1 
C467: x13+x55 <=1 
C468: x13+x63-y13_63 <=1 
C469: x14+x15-y14_15 <=1 
C470: x14+x17 <=1 
C471: x14+x20 <=1 
C472: x14+x22 <=1 
C473: x14+x23 <=1 
C474: x14+x24-y14_24 <=1 
C475: x14+x25 <=1 
C476: x14+x28 <=1 
C477: x14+x29-y14_29 <=1 
C478: x14+x30 <=1 
C479: x14+x31-y14_31 <=1 
C480: x14+x32 <=1 
C481: x14+x33 <=1 
C482: x14+x34-y14_34 <=1 
C483: x14+x39 <=1 
C484: x14+x40 <=1 
C485: x14+x42-y14_42 <=1 
C486: x14+x44-y14_44 <=1 
C487: x14+x46 <=1 
C488: x14+x48 <=1 
C489: x14+x49 <=1 
C490: x14+x50-y14_50 <=1 
C491: x14+x51-y14_51 <=1 
C492: x14+x52 <=1 
C493: x14+x57 <=1 
C494: x14+x58-y14_58 <=1 
C495: x14+x59 <=1 
C496: x14+x61-y14_61 <=1 
C497: x15+x17-y15_17 <=1 
C498: x15+x18-y15_18 <=1 
C499: x15+x22 <=1 
C500: x15+x23-y15_23 <=1 
C501: x15+x25-y15_25 <=1 
C502: x15+x26 <=1 
C503: x15+x27-y15_27 <=1 
C504: x15+x28 <=1 
C505: x15+x29 <=1 
C506: x15+x30 <=1 
C507: x15+x31 <=1 
C508: x15+x34-y15_34 <=1 
C509: x15+x35-y15_35 <=1 
C510: x15+x37 <=1 
C511: x15+x39-y15_39 <=1 
C512: x15+x40 <=1 
C513: x15+x41 <=1 
C514: x15+x42 <=1 
C515: x15+x43-y15_43 <=1 
C516: x15+x45-y15_45 <=1 
C517: x15+x46-y15_46 <=1 
C518: x15+x47 <=1 
C519: x15+x48 <=1 
C520: x15+x49 <=1 
C521: x15+x50 <=1 
C522: x15+x51-y15_51 <=1 
C523: x15+x53 <=1 
C524: x15+x54-y15_54 <=1 
C525: x15+x57 <=1 
C526: x15+x58 <=1 
C527: x15+x62-y15_62 <=1 
C528: x15+x64-y15_64 <=1 
C529: x16+x17 <=1 
C530: x16+x18-y16_18 <=1 
C531: x16+x20-y16_20 <=1 
C532: x16+x21 <=1 
C533: x16+x22-y16_22 <=1 
C534: x16+x23 <=1 
C535: x16+x24 <=1 
C536: x16+x26-y16_26 <=1 
C537: x16+x28 <=1 
C538: x16+x29 <=1 
C539: x16+x30 <=1 
C540: x16+x32 <=1 
C541: x16+x33-y16_33 <=1 
C542: x16+x34-y16_34 <=1 
C543: x16+x35-y16_35 <=1 
C544: x16+x36 <=1 
C545: x16+x42-y16_42 <=1 
C546: x16+x43-y16_43 <=1 
C547: x16+x46-y16_46 <=1 
C548: x16+x47 <=1 
C549: x16+x48 <=1 
C550: x16+x49-y16_49 <=1 
C551: x16+x50-y16_50 <=1 
C552: x16+x51 <=1 
C553: x16+x52 <=1 
C554: x16+x53-y16_53 <=1 
C555: x16+x54-y16_54 <=1 
C556: x16+x55 <=1 
C557: x16+x56 <=1 
C558: x16+x58-y16_58 <=1 
C559: x16+x59-y16_59 <=1 
C560: x16+x60-y16_60 <=1 
C561: x16+x61-y16_61 <=1 
C562: x16+x62-y16_62 <=1 
C563: x16+x63 <=1 
C564: x16+x64-y16_64 <=1 
C565: x17+x18 <=1 
C566: x17+x19 <=1 
C567: x17+x20-y17_20 <=1 
C568: x17+x21 <=1 
C569: x17+x23-y17_23 <=1 
C570: x17+x24-y17_24 <=1 
C571: x17+x25 <=1 
C572: x17+x27-y17_27 <=1 
C573: x17+x28-y17_28 <=1 
C574: x17+x29-y17_29 <=1 
C575: x17+x30-y17_30 <=1 
C576: x17+x31-y17_31 <=1 
C577: x17+x32 <=1 
C578: x17+x33 <=1 
C579: x17+x34 <=1 
C580: x17+x35-y17_35 <=1 
C581: x17+x36-y17_36 <=1 
C582: x17+x38 <=1 
C583: x17+x39-y17_39 <=1 
C584: x17+x40-y17_40 <=1 
C585: x17+x41-y17_41 <=1 
C586: x17+x45 <=1 
C587: x17+x48-y17_48 <=1 
C588: x17+x49 <=1 
C589: x17+x50 <=1 
C590: x17+x51-y17_51 <=1 
C591: x17+x52-y17_52 <=1 
C592: x17+x53-y17_53 <=1 
C593: x17+x54-y17_54 <=1 
C594: x17+x57-y17_57 <=1 
C595: x17+x58 <=1 
C596: x17+x59 <=1 
C597: x17+x60-y17_60 <=1 
C598: x17+x62 <=1 
C599: x18+x19 <=1 
C600: x18+x21 <=1 
C601: x18+x23-y18_23 <=1 
C602: x18+x25-y18_25 <=1 
C603: x18+x26-y18_26 <=1 
C604: x18+x27 <=1 
C605: x18+x28 <=1 
C606: x18+x29 <=1 
C607: x18+x30 <=1 
C608: x18+x32-y18_32 <=1 
C609: x18+x33 <=1 
C610: x18+x36 <=1 
C611: x18+x37 <=1 
C612: x18+x38 <=1 
C613: x18+x39 <=1 
C614: x18+x40-y18_40 <=1 
C615: x18+x41 <=1 
C616: x18+x43 <=1 
C617: x18+x45-y18_45 <=1 
C618: x18+x46-y18_46 <=1 
C619: x18+x49 <=1 
C620: x18+x50-y18_50 <=1 
C621: x18+x51-y18_51 <=1 
C622: x18+x52-y18_52 <=1 
C623: x18+x53-y18_53 <=1 
C624: x18+x54 <=1 
C625: x18+x55-y18_55 <=1 
C626: x18+x57 <=1 
C627: x18+x58-y18_58 <=1 
C628: x18+x59 <=1 
C629: x18+x61-y18_61 <=1 
C630: x18+x62-y18_62 <=1 
C631: x18+x63 <=1 
C632: x18+x64-y18_64 <=1 
C633: x19+x20-y19_20 <=1 
C634: x19+x21-y19_21 <=1 
C635: x19+x22 <=1 
C636: x19+x24-y19_24 <=1 
C637: x19+x27 <=1 
C638: x19+x32-y19_32 <=1 
C639: x19+x34-y19_34 <=1 
C640: x19+x35-y19_35 <=1 
C641: x19+x40-y19_40 <=1 
C642: x19+x42-y19_42 <=1 
C643: x19+x43-y19_43 <=1 
C644: x19+x44 <=1 
C645: x19+x45-y19_45 <=1 
C646: x19+x47 <=1 
C647: x19+x49 <=1 
C648: x19+x50-y19_50 <=1 
C649: x19+x51 <=1 
C650: x19+x52-y19_52 <=1 
C651: x19+x55 <=1 
C652: x19+x56 <=1 
C653: x19+x57-y19_57 <=1 
C654: x19+x58 <=1 
C655: x19+x60 <=1 
C656: x19+x62-y19_62 <=1 
C657: x19+x63 <=1 
C658: x20+x21-y20_21 <=1 
C659: x20+x22 <=1 
C660: x20+x23-y20_23 <=1 
C661: x20+x24 <=1 
C662: x20+x29 <=1 
C663: x20+x30 <=1 
C664: x20+x31-y20_31 <=1 
C665: x20+x33-y20_33 <=1 
C666: x20+x34-y20_34 <=1 
C667: x20+x36 <=1 
C668: x20+x37 <=1 
C669: x20+x38-y20_38 <=1 
C670: x20+x39-y20_39 <=1 
C671: x20+x40 <=1 
C672: x20+x41 <=1 
C673: x20+x43-y20_43 <=1 
C674: x20+x46 <=1 
C675: x20+x48 <=1 
C676: x20+x50-y20_50 <=1 
C677: x20+x52-y20_52 <=1 
C678: x20+x54 <=1 
C679: x20+x56 <=1 
C680: x20+x57-y20_57 <=1 
C681: x20+x58 <=1 
C682: x20+x59-y20_59 <=1 
C683: x20+x61 <=1 
C684: x20+x63 <=1 
C685: x21+x24-y21_24 <=1 
C686: x21+x27 <=1 
C687: x21+x28-y21_28 <=1 
C688: x21+x29 <=1 
C689: x21+x31-y21_31 <=1 
C690: x21+x33 <=1 
C691: x21+x34-y21_34 <=1 
C692: x21+x35 <=1 
C693: x21+x38 <=1 
C694: x21+x41-y21_41 <=1 
C695: x21+x42-y21_42 <=1 
C696: x21+x43-y21_43 <=1 
C697: x21+x44 <=1 
C698: x21+x45 <=1 
C699: x21+x46-y21_46 <=1 
C700: x21+x47-y21_47 <=1 
C701: x21+x48 <=1 
C702: x21+x49 <=1 
C703: x21+x50-y21_50 <=1 
C704: x21+x51-y21_51 <=1 
C705: x21+x52-y21_52 <=1 
C706: x21+x53-y21_53 <=1 
C707: x21+x54 <=1 
C708: x21+x55 <=1 
C709: x21+x56-y21_56 <=1 
C710: x21+x57 <=1 
C711: x21+x58 <=1 
C712: x21+x59 <=1 
C713: x21+x62 <=1 
C714: x21+x63-y21_63 <=1 
C715: x22+x23-y22_23 <=1 
C716: x22+x26-y22_26 <=1 
C717: x22+x27 <=1 
C718: x22+x29 <=1 
C719: x22+x30 <=1 
C720: x22+x31 <=1 
C721: x22+x32 <=1 
C722: x22+x35-y22_35 <=1 
C723: x22+x36-y22_36 <=1 
C724: x22+x41 <=1 
C725: x22+x43-y22_43 <=1 
C726: x22+x45-y22_45 <=1 
C727: x22+x48 <=1 
C728: x22+x51-y22_51 <=1 
C729: x22+x53-y22_53 <=1 
C730: x22+x54-y22_54 <=1 
C731: x22+x57 <=1 
C732: x22+x58-y22_58 <=1 
C733: x22+x59-y22_59 <=1 
C734: x22+x60-y22_60 <=1 
C735: x22+x62 <=1 
C736: x22+x64 <=1 
C737: x23+x24 <=1 
C738: x23+x25-y23_25 <=1 
C739: x23+x26 <=1 
C740: x23+x28-y23_28 <=1 
C741: x23+x29 <=1 
C742: x23+x37-y23_37 <=1 
C743: x23+x38 <=1 
C744: x23+x40-y23_40 <=1 
C745: x23+x41-y23_41 <=1 
C746: x23+x42-y23_42 <=1 
C747: x23+x46-y23_46 <=1 
C748: x23+x47-y23_47 <=1 
C749: x23+x49 <=1 
C750: x23+x51 <=1 
C751: x23+x54 <=1 
C752: x23+x55 <=1 
C753: x23+x58 <=1 
C754: x23+x59-y23_59 <=1 
C755: x23+x60-y23_60 <=1 
C756: x23+x62-y23_62 <=1 
C757: x23+x63 <=1 
C758: x24+x26 <=1 
C759: x24+x27-y24_27 <=1 
C760: x24+x28 <=1 
C761: x24+x29 <=1 
C762: x24+x30 <=1 
C763: x24+x31 <=1 
C764: x24+x35-y24_35 <=1 
C765: x24+x36 <=1 
C766: x24+x38 <=1 
C767: x24+x39 <=1 
C768: x24+x40 <=1 
C769: x24+x41 <=1 
C770: x24+x42 <=1 
C771: x24+x43-y24_43 <=1 
C772: x24+x45-y24_45 <=1 
C773: x24+x46-y24_46 <=1 
C774: x24+x47-y24_47 <=1 
C775: x24+x48-y24_48 <=1 
C776: x24+x50 <=1 
C777: x24+x53-y24_53 <=1 
C778: x24+x54-y24_54 <=1 
C779: x24+x55 <=1 
C780: x24+x56-y24_56 <=1 
C781: x24+x57-y24_57 <=1 
C782: x24+x59-y24_59 <=1 
C783: x24+x60 <=1 
C784: x24+x61-y24_61 <=1 
C785: x24+x63-y24_63 <=1 
C786: x24+x64-y24_64 <=1 
C787: x25+x26 <=1 
C788: x25+x28-y25_28 <=1 
C789: x25+x29-y25_29 <=1 
C790: x25+x31-y25_31 <=1 
C791: x25+x34-y25_34 <=1 
C792: x25+x35-y25_35 <=1 
C793: x25+x36 <=1 
C794: x25+x37-y25_37 <=1 
C795: x25+x42 <=1 
C796: x25+x43-y25_43 <=1 
C797: x25+x45 <=1 
C798: x25+x46 <=1 
C799: x25+x47 <=1 
C800: x25+x49-y25_49 <=1 
C801: x25+x50 <=1 
C802: x25+x51 <=1 
C803: x25+x52 <=1 
C804: x25+x54-y25_54 <=1 
C805: x25+x55-y25_55 <=1 
C806: x25+x56 <=1 
C807: x25+x59 <=1 
C808: x25+x61 <=1 
C809: x25+x64-y25_64 <=1 
C810: x26+x27 <=1 
C811: x26+x29-y26_29 <=1 
C812: x26+x32-y26_32 <=1 
C813: x26+x33 <=1 
C814: x26+x34 <=1 
C815: x26+x35-y26_35 <=1 
C816: x26+x36-y26_36 <=1 
C817: x26+x37-y26_37 <=1 
C818: x26+x38-y26_38 <=1 
C819: x26+x39-y26_39 <=1 
C820: x26+x41 <=1 
C821: x26+x45 <=1 
C822: x26+x46-y26_46 <=1 
C823: x26+x47-y26_47 <=1 
C824: x26+x52-y26_52 <=1 
C825: x26+x53 <=1 
C826: x26+x56 <=1 
C827: x26+x57-y26_57 <=1 
C828: x26+x59-y26_59 <=1 
C829: x26+x60-y26_60 <=1 
C830: x26+x63 <=1 
C831: x26+x64-y26_64 <=1 
C832: x27+x28 <=1 
C833: x27+x29 <=1 
C834: x27+x30 <=1 
C835: x27+x31 <=1 
C836: x27+x34-y27_34 <=1 
C837: x27+x35-y27_35 <=1 
C838: x27+x36-y27_36 <=1 
C839: x27+x37-y27_37 <=1 
C840: x27+x38-y27_38 <=1 
C841: x27+x39-y27_39 <=1 
C842: x27+x41 <=1 
C843: x27+x43 <=1 
C844: x27+x44 <=1 
C845: x27+x46 <=1 
C846: x27+x48 <=1 
C847: x27+x49 <=1 
C848: x27+x50-y27_50 <=1 
C849: x27+x51 <=1 
C850: x27+x52 <=1 
C851: x27+x53 <=1 
C852: x27+x54-y27_54 <=1 
C853: x27+x55 <=1 
C854: x27+x56 <=1 
C855: x27+x57 <=1 
C856: x27+x61-y27_61 <=1 
C857: x27+x62-y27_62 <=1 
C858: x27+x64 <=1 
C859: x28+x30 <=1 
C860: x28+x33 <=1 
C861: x28+x34-y28_34 <=1 
C862: x28+x35 <=1 
C863: x28+x36 <=1 
C864: x28+x37-y28_37 <=1 
C865: x28+x38 <=1 
C866: x28+x39-y28_39 <=1 
C867: x28+x40-y28_40 <=1 
C868: x28+x42 <=1 
C869: x28+x43 <=1 
C870: x28+x44-y28_44 <=1 
C871: x28+x48-y28_48 <=1 
C872: x28+x50 <=1 
C873: x28+x52 <=1 
C874: x28+x57 <=1 
C875: x28+x58 <=1 
C876: x28+x61-y28_61 <=1 
C877: x28+x62-y28_62 <=1 
C878: x28+x63 <=1 
C879: x29+x30 <=1 
C880: x29+x31-y29_31 <=1 
C881: x29+x32 <=1 
C882: x29+x34-y29_34 <=1 
C883: x29+x35 <=1 
C884: x29+x36-y29_36 <=1 
C885: x29+x39-y29_39 <=1 
C886: x29+x42-y29_42 <=1 
C887: x29+x43-y29_43 <=1 
C888: x29+x44 <=1 
C889: x29+x45-y29_45 <=1 
C890: x29+x47 <=1 
C891: x29+x51 <=1 
C892: x29+x53-y29_53 <=1 
C893: x29+x54 <=1 
C894: x29+x55-y29_55 <=1 
C895: x29+x56 <=1 
C896: x29+x57-y29_57 <=1 
C897: x29+x58-y29_58 <=1 
C898: x29+x60 <=1 
C899: x29+x61 <=1 
C900: x29+x62 <=1 
C901: x29+x63 <=1 
C902: x29+x64 <=1 
C903: x30+x32 <=1 
C904: x30+x33 <=1 
C905: x30+x34-y30_34 <=1 
C906: x30+x35 <=1 
C907: x30+x37-y30_37 <=1 
C908: x30+x39-y30_39 <=1 
C909: x30+x40 <=1 
C910: x30+x41-y30_41 <=1 
C911: x30+x42 <=1 
C912: x30+x43 <=1 
C913: x30+x44-y30_44 <=1 
C914: x30+x46 <=1 
C915: x30+x49 <=1 
C916: x30+x54 <=1 
C917: x30+x57 <=1 
C918: x30+x59 <=1 
C919: x30+x60 <=1 
C920: x30+x64 <=1 
C921: x31+x33 <=1 
C922: x31+x34-y31_34 <=1 
C923: x31+x36-y31_36 <=1 
C924: x31+x37 <=1 
C925: x31+x38-y31_38 <=1 
C926: x31+x39 <=1 
C927: x31+x41-y31_41 <=1 
C928: x31+x43 <=1 
C929: x31+x44-y31_44 <=1 
C930: x31+x45 <=1 
C931: x31+x46-y31_46 <=1 
C932: x31+x47-y31_47 <=1 
C933: x31+x48-y31_48 <=1 
C934: x31+x50 <=1 
C935: x31+x51 <=1 
C936: x31+x53-y31_53 <=1 
C937: x31+x54 <=1 
C938: x31+x56-y31_56 <=1 
C939: x31+x57 <=1 
C940: x31+x59-y31_59 <=1 
C941: x31+x62 <=1 
C942: x31+x63-y31_63 <=1 
C943: x31+x64-y31_64 <=1 
C944: x32+x35 <=1 
C945: x32+x36 <=1 
C946: x32+x37-y32_37 <=1 
C947: x32+x38 <=1 
C948: x32+x41 <=1 
C949: x32+x42 <=1 
C950: x32+x45 <=1 
C951: x32+x46-y32_46 <=1 
C952: x32+x49 <=1 
C953: x32+x50 <=1 
C954: x32+x51-y32_51 <=1 
C955: x32+x55 <=1 
C956: x32+x57-y32_57 <=1 
C957: x32+x59-y32_59 <=1 
C958: x32+x62 <=1 
C959: x32+x63 <=1 
C960: x33+x35 <=1 
C961: x33+x36-y33_36 <=1 
C962: x33+x37-y33_37 <=1 
C963: x33+x39 <=1 
C964: x33+x40 <=1 
C965: x33+x41 <=1 
C966: x33+x42-y33_42 <=1 
C967: x33+x43 <=1 
C968: x33+x46 <=1 
C969: x33+x49-y33_49 <=1 
C970: x33+x50 <=1 
C971: x33+x51-y33_51 <=1 
C972: x33+x52-y33_52 <=1 
C973: x33+x53-y33_53 <=1 
C974: x33+x54-y33_54 <=1 
C975: x33+x55-y33_55 <=1 
C976: x33+x56 <=1 
C977: x33+x57 <=1 
C978: x33+x59 <=1 
C979: x33+x60-y33_60 <=1 
C980: x33+x61 <=1 
C981: x33+x62-y33_62 <=1 
C982: x34+x35 <=1 
C983: x34+x36 <=1 
C984: x34+x38 <=1 
C985: x34+x39 <=1 
C986: x34+x41 <=1 
C987: x34+x43-y34_43 <=1 
C988: x34+x44 <=1 
C989: x34+x45-y34_45 <=1 
C990: x34+x48 <=1 
C991: x34+x50-y34_50 <=1 
C992: x34+x52-y34_52 <=1 
C993: x34+x56-y34_56 <=1 
C994: x34+x57-y34_57 <=1 
C995: x34+x59 <=1 
C996: x34+x60 <=1 
C997: x34+x64 <=1 
C998: x35+x37-y35_37 <=1 
C999: x35+x39 <=1 
C1000: x35+x41 <=1 
C1001: x35+x42 <=1 
C1002: x35+x43-y35_43 <=1 
C1003: x35+x44 <=1 
C1004: x35+x46-y35_46 <=1 
C1005: x35+x47 <=1 
C1006: x35+x52 <=1 
C1007: x35+x53 <=1 
C1008: x35+x56-y35_56 <=1 
C1009: x35+x59 <=1 
C1010: x35+x62 <=1 
C1011: x35+x63-y35_63 <=1 
C1012: x36+x37 <=1 
C1013: x36+x38-y36_38 <=1 
C1014: x36+x40 <=1 
C1015: x36+x41-y36_41 <=1 
C1016: x36+x42 <=1 
C1017: x36+x43 <=1 
C1018: x36+x45-y36_45 <=1 
C1019: x36+x46-y36_46 <=1 
C1020: x36+x48-y36_48 <=1 
C1021: x36+x50-y36_50 <=1 
C1022: x36+x51 <=1 
C1023: x36+x54 <=1 
C1024: x36+x55 <=1 
C1025: x36+x58 <=1 
C1026: x36+x59 <=1 
C1027: x36+x60-y36_60 <=1 
C1028: x36+x61 <=1 
C1029: x36+x63 <=1 
C1030: x36+x64-y36_64 <=1 
C1031: x37+x39 <=1 
C1032: x37+x42 <=1 
C1033: x37+x43-y37_43 <=1 
C1034: x37+x44-y37_44 <=1 
C1035: x37+x46 <=1 
C1036: x37+x53 <=1 
C1037: x37+x54 <=1 
C1038: x37+x55-y37_55 <=1 
C1039: x37+x60 <=1 
C1040: x37+x61-y37_61 <=1 
C1041: x37+x62 <=1 
C1042: x37+x63-y37_63 <=1 
C1043: x38+x40-y38_40 <=1 
C1044: x38+x41-y38_41 <=1 
C1045: x38+x42 <=1 
C1046: x38+x44 <=1 
C1047: x38+x45 <=1 
C1048: x38+x47-y38_47 <=1 
C1049: x38+x48 <=1 
C1050: x38+x51 <=1 
C1051: x38+x52-y38_52 <=1 
C1052: x38+x53 <=1 
C1053: x38+x56-y38_56 <=1 
C1054: x38+x57 <=1 
C1055: x38+x58-y38_58 <=1 
C1056: x38+x59-y38_59 <=1 
C1057: x38+x60 <=1 
C1058: x38+x62 <=1 
C1059: x38+x63 <=1 
C1060: x38+x64-y38_64 <=1 
C1061: x39+x40 <=1 
C1062: x39+x42 <=1 
C1063: x39+x43-y39_43 <=1 
C1064: x39+x44-y39_44 <=1 
C1065: x39+x45-y39_45 <=1 
C1066: x39+x46 <=1 
C1067: x39+x48 <=1 
C1068: x39+x49-y39_49 <=1 
C1069: x39+x50 <=1 
C1070: x39+x51-y39_51 <=1 
C1071: x39+x52-y39_52 <=1 
C1072: x39+x53-y39_53 <=1 
C1073: x39+x55 <=1 
C1074: x39+x56-y39_56 <=1 
C1075: x39+x58 <=1 
C1076: x39+x59 <=1 
C1077: x39+x61-y39_61 <=1 
C1078: x39+x62-y39_62 <=1 
C1079: x39+x64 <=1 
C1080: x40+x41-y40_41 <=1 
C1081: x40+x43 <=1 
C1082: x40+x45 <=1 
C1083: x40+x46-y40_46 <=1 
C1084: x40+x48-y40_48 <=1 
C1085: x40+x51 <=1 
C1086: x40+x52 <=1 
C1087: x40+x53 <=1 
C1088: x40+x58-y40_58 <=1 
C1089: x40+x59-y40_59 <=1 
C1090: x40+x60-y40_60 <=1 
C1091: x40+x61 <=1 
C1092: x40+x63 <=1 
C1093: x40+x64 <=1 
C1094: x41+x42-y41_42 <=1 
C1095: x41+x43 <=1 
C1096: x41+x44-y41_44 <=1 
C1097: x41+x46 <=1 
C1098: x41+x47 <=1 
C1099: x41+x49 <=1 
C1100: x41+x50-y41_50 <=1 
C1101: x41+x51-y41_51 <=1 
C1102: x41+x52-y41_52 <=1 
C1103: x41+x55 <=1 
C1104: x41+x57-y41_57 <=1 
C1105: x41+x61-y41_61 <=1 
C1106: x41+x63 <=1 
C1107: x41+x64 <=1 
C1108: x42+x43-y42_43 <=1 
C1109: x42+x46 <=1 
C1110: x42+x49 <=1 
C1111: x42+x50-y42_50 <=1 
C1112: x42+x53-y42_53 <=1 
C1113: x42+x54 <=1 
C1114: x42+x55 <=1 
C1115: x42+x56 <=1 
C1116: x42+x57 <=1 
C1117: x42+x59 <=1 
C1118: x42+x60-y42_60 <=1 
C1119: x42+x61 <=1 
C1120: x42+x63 <=1 
C1121: x42+x64-y42_64 <=1 
C1122: x43+x44-y43_44 <=1 
C1123: x43+x45-y43_45 <=1 
C1124: x43+x46-y43_46 <=1 
C1125: x43+x48 <=1 
C1126: x43+x49-y43_49 <=1 
C1127: x43+x50-y43_50 <=1 
C1128: x43+x51-y43_51 <=1 
C1129: x43+x52-y43_52 <=1 
C1130: x43+x53-y43_53 <=1 
C1131: x43+x54-y43_54 <=1 
C1132: x43+x56-y43_56 <=1 
C1133: x43+x57 <=1 
C1134: x43+x59 <=1 
C1135: x43+x64-y43_64 <=1 
C1136: x44+x45 <=1 
C1137: x44+x46 <=1 
C1138: x44+x47 <=1 
C1139: x44+x49 <=1 
C1140: x44+x51 <=1 
C1141: x44+x52-y44_52 <=1 
C1142: x44+x53 <=1 
C1143: x44+x54-y44_54 <=1 
C1144: x44+x56-y44_56 <=1 
C1145: x44+x57-y44_57 <=1 
C1146: x44+x58 <=1 
C1147: x44+x60-y44_60 <=1 
C1148: x44+x61-y44_61 <=1 
C1149: x44+x62 <=1 
C1150: x44+x64 <=1 
C1151: x45+x46-y45_46 <=1 
C1152: x45+x47-y45_47 <=1 
C1153: x45+x48-y45_48 <=1 
C1154: x45+x49 <=1 
C1155: x45+x50-y45_50 <=1 
C1156: x45+x51 <=1 
C1157: x45+x54 <=1 
C1158: x45+x55 <=1 
C1159: x45+x56 <=1 
C1160: x45+x57-y45_57 <=1 
C1161: x45+x58 <=1 
C1162: x45+x59 <=1 
C1163: x45+x60-y45_60 <=1 
C1164: x45+x62-y45_62 <=1 
C1165: x45+x63-y45_63 <=1 
C1166: x45+x64 <=1 
C1167: x46+x48-y46_48 <=1 
C1168: x46+x50-y46_50 <=1 
C1169: x46+x51-y46_51 <=1 
C1170: x46+x52 <=1 
C1171: x46+x54 <=1 
C1172: x46+x55-y46_55 <=1 
C1173: x46+x56-y46_56 <=1 
C1174: x46+x59-y46_59 <=1 
C1175: x46+x61-y46_61 <=1 
C1176: x46+x62 <=1 
C1177: x46+x64 <=1 
C1178: x47+x48 <=1 
C1179: x47+x50 <=1 
C1180: x47+x52 <=1 
C1181: x47+x53 <=1 
C1182: x47+x54-y47_54 <=1 
C1183: x47+x55-y47_55 <=1 
C1184: x47+x58-y47_58 <=1 
C1185: x47+x59 <=1 
C1186: x47+x63 <=1 
C1187: x48+x49 <=1 
C1188: x48+x51-y48_51 <=1 
C1189: x48+x52-y48_52 <=1 
C1190: x48+x53 <=1 
C1191: x48+x54-y48_54 <=1 
C1192: x48+x58-y48_58 <=1 
C1193: x48+x61-y48_61 <=1 
C1194: x49+x51 <=1 
C1195: x49+x52 <=1 
C1196: x49+x53 <=1 
C1197: x49+x54-y49_54 <=1 
C1198: x49+x55-y49_55 <=1 
C1199: x49+x58 <=1 
C1200: x49+x59-y49_59 <=1 
C1201: x49+x60-y49_60 <=1 
C1202: x49+x62-y49_62 <=1 
C1203: x49+x64-y49_64 <=1 
C1204: x50+x52-y50_52 <=1 
C1205: x50+x54-y50_54 <=1 
C1206: x50+x56 <=1 
C1207: x50+x57-y50_57 <=1 
C1208: x50+x58-y50_58 <=1 
C1209: x50+x60 <=1 
C1210: x50+x61 <=1 
C1211: x50+x62 <=1 
C1212: x51+x52 <=1 
C1213: x51+x54 <=1 
C1214: x51+x55 <=1 
C1215: x51+x56-y51_56 <=1 
C1216: x51+x57 <=1 
C1217: x51+x58 <=1 
C1218: x51+x59 <=1 
C1219: x51+x60-y51_60 <=1 
C1220: x51+x63-y51_63 <=1 
C1221: x52+x53 <=1 
C1222: x52+x54 <=1 
C1223: x52+x55 <=1 
C1224: x52+x56-y52_56 <=1 
C1225: x52+x57-y52_57 <=1 
C1226: x52+x58-y52_58 <=1 
C1227: x53+x54 <=1 
C1228: x53+x57-y53_57 <=1 
C1229: x53+x58-y53_58 <=1 
C1230: x53+x60-y53_60 <=1 
C1231: x53+x61-y53_61 <=1 
C1232: x53+x63 <=1 
C1233: x54+x55-y54_55 <=1 
C1234: x54+x57 <=1 
C1235: x54+x64 <=1 
C1236: x55+x58-y55_58 <=1 
C1237: x55+x59 <=1 
C1238: x55+x60 <=1 
C1239: x55+x61 <=1 
C1240: x55+x63 <=1 
C1241: x56+x57 <=1 
C1242: x56+x59-y56_59 <=1 
C1243: x56+x61 <=1 
C1244: x56+x62 <=1 
C1245: x56+x63-y56_63 <=1 
C1246: x56+x64 <=1 
C1247: x57+x58 <=1 
C1248: x57+x60 <=1 
C1249: x57+x62-y57_62 <=1 
C1250: x57+x63-y57_63 <=1 
C1251: x57+x64 <=1 
C1252: x58+x60 <=1 
C1253: x58+x61-y58_61 <=1 
C1254: x58+x62 <=1 
C1255: x58+x63-y58_63 <=1 
C1256: x58+x64-y58_64 <=1 
C1257: x59+x61 <=1 
C1258: x59+x62 <=1 
C1259: x60+x61 <=1 
C1260: x61+x63-y61_63 <=1 
C1261: x62+x63 <=1 
C1262: x62+x64 <=1 
C1263: x63+x64-y63_64 <=1 

binary
x0
x1
x2
x3
x4
x5
x6
x7
x8
x9
x10
x11
x12
x13
x14
x15
x16
x17
x18
x19
x20
x21
x22
x23
x24
x25
x26
x27
x28
x29
x30
x31
x32
x33
x34
x35
x36
x37
x38
x39
x40
x41
x42
x43
x44
x45
x46
x47
x48
x49
x50
x51
x52
x53
x54
x55
x56
x57
x58
x59
x60
x61
x62
x63
x64
